TYPE : Vertex Cover
DIMENSION: 27
EDGE_DATA_SECTION:
0 9
0 10
1 23
2 5
3 6
3 7
3 14
4 6
4 14
4 17
4 20
4 26
5 11
5 18
5 20
6 7
6 26
7 8
7 13
7 16
7 20
8 12
8 21
8 26
9 12
9 25
10 11
10 20
10 22
13 20
14 24
15 18
18 26
19 23
21 24
24 25
-1
VERTEX_DEGREE:
2.0 1.0 1.0 3.0 5.0 4.0 4.0 6.0 4.0 3.0 4.0 2.0 2.0 2.0 3.0 1.0 1.0 1.0 3.0 1.0 5.0 2.0 1.0 2.0 3.0 2.0 4.0
VERTEX_COVER:
3 4 5 6 7 8 9 10 18 20 23 24
EOF
